59
125
87	3
86	1
84	1
83	1
82	1
81	3
80	1
79	2
78	1
77	4
76	1
74	1
73	2
68	2
66	3
65	2
64	1
63	2
62	1
61	3
60	1
59	1
58	1
56	2
55	3
53	3
52	1
51	2
49	1
48	1
46	2
45	1
44	2
42	2
41	1
39	1
38	3
37	1
36	1
35	1
34	1
33	2
32	1
30	1
29	3
28	2
27	2
26	1
25	4
24	2
23	1
22	1
21	1
20	3
18	1
15	1
14	1
13	3
12	2
